unsat
(:max-memory          18.23
 :memory              18.05
 :nlsat-conflicts     3
 :nlsat-learned-added 2
 :nlsat-propagations  16
 :nlsat-stages        5
 :num-allocs          12954
 :rlimit-count        25661
 :time                0.01
 :total-time          0.03)
